50, 5478
111, 357
74, 238
98, 54
490, 270
148, 476
259, 833
49, 27
259, 833
37, 119
370, 1190
343, 189
37, 119
245, 135
74, 238
111, 357
343, 189
185, 595
392, 216
259, 833
441, 243
294, 162
111, 357
392, 216
196, 108
333, 1071
74, 238
49, 27
343, 189
370, 1190
74, 238
196, 108
259, 833
185, 595
259, 833
98, 54
441, 243
147, 81
111, 357
147, 81
259, 833
441, 243
147, 81
111, 357
294, 162
294, 162
185, 595
111, 357
294, 162
37, 119
490, 270
